578536
467417
419041
361980
331588
331588
246810
246810
246810
246810
240484
240484
240484
206906
204045
204045
198721
193382
193382
186806
186806
167829
167829
158768
135953
135953
131869
131869
131869
131869
131869
131869
131869
121723
121723
121723
121723
97952.2
97952.2
97952.2
87396
87396
87396
87396
87396
87396
87396
87396
87396
87396
87396
87396
87396
87396
87396
87396
74129.2
74129.2
70073.3
70073.3
70073.3
70073.3
65622.8
65092.4
65092.4
65092.4
65092.4
65092.4
65092.4
65092.4
65092.4
65092.4
65092.4
65092.4
65092.4
65092.4
65092.4
65092.4
65092.4
65092.4
65092.4
65092.4
65092.4
65092.4
65092.4
65092.4
65092.4
65092.4
65092.4
65092.4
65092.4
65092.4
65092.4
65092.4
65092.4
65092.4
65092.4
65092.4
65092.4
65092.4
